2 

1 
3 
1  4  1 2 3 4  2  1  3  1 2 3  2  2  1 4 
0  2  7 8 
1  3  2 3 5  2  1  2  2 5  3  2  3 5 

0 
4 
0  2  7 8 
1  3  1 4 6  2  2  2  1 4  5  1  6 
0  2  8 9 
1  3  3 4 6  2  4  2  3 4  5  2  4 6